;; Automatically generated 25D closed-loop LQR CHC for eady
;; Note: Singleton initialization applied (all states start exactly at 0.0)
(set-logic HORN)

(declare-fun Inv (Real Real Real Real Real Real Real Real Real Real Real Real Real Real Real Real Real Real Real Real Real Real Real Real Real) Bool)

;; 1. Initialization
(assert
  (forall ((x0 Real) (x1 Real) (x2 Real) (x3 Real) (x4 Real) (x5 Real) (x6 Real) (x7 Real) (x8 Real) (x9 Real) (x10 Real) (x11 Real) (x12 Real) (x13 Real) (x14 Real) (x15 Real) (x16 Real) (x17 Real) (x18 Real) (x19 Real) (x20 Real) (x21 Real) (x22 Real) (x23 Real) (x24 Real))
    (=>
      (and
        (= x0 0.0)
        (= x1 0.0)
        (= x2 0.0)
        (= x3 0.0)
        (= x4 0.0)
        (= x5 0.0)
        (= x6 0.0)
        (= x7 0.0)
        (= x8 0.0)
        (= x9 0.0)
        (= x10 0.0)
        (= x11 0.0)
        (= x12 0.0)
        (= x13 0.0)
        (= x14 0.0)
        (= x15 0.0)
        (= x16 0.0)
        (= x17 0.0)
        (= x18 0.0)
        (= x19 0.0)
        (= x20 0.0)
        (= x21 0.0)
        (= x22 0.0)
        (= x23 0.0)
        (= x24 0.0)
      )
      (Inv x0 x1 x2 x3 x4 x5 x6 x7 x8 x9 x10 x11 x12 x13 x14 x15 x16 x17 x18 x19 x20 x21 x22 x23 x24)
    )
  )
)

;; 2. Transition (Closed-Loop Affine Step)
(assert
  (forall ((x0 Real) (x1 Real) (x2 Real) (x3 Real) (x4 Real) (x5 Real) (x6 Real) (x7 Real) (x8 Real) (x9 Real) (x10 Real) (x11 Real) (x12 Real) (x13 Real) (x14 Real) (x15 Real) (x16 Real) (x17 Real) (x18 Real) (x19 Real) (x20 Real) (x21 Real) (x22 Real) (x23 Real) (x24 Real)
           (x0_next Real) (x1_next Real) (x2_next Real) (x3_next Real) (x4_next Real) (x5_next Real) (x6_next Real) (x7_next Real) (x8_next Real) (x9_next Real) (x10_next Real) (x11_next Real) (x12_next Real) (x13_next Real) (x14_next Real) (x15_next Real) (x16_next Real) (x17_next Real) (x18_next Real) (x19_next Real) (x20_next Real) (x21_next Real) (x22_next Real) (x23_next Real) (x24_next Real))
    (=>
      (and
        (Inv x0 x1 x2 x3 x4 x5 x6 x7 x8 x9 x10 x11 x12 x13 x14 x15 x16 x17 x18 x19 x20 x21 x22 x23 x24)

        (= x0_next (+ (* 0.960790 x0) (+ (* -0.012159 x1) (+ (* 0.001964 x2) (+ (* -0.005666 x3) (+ (* -0.000458 x4) (+ (* -0.004456 x5) (+ (* -0.001255 x6) (+ (* -0.003529 x7) (+ (* -0.001202 x8) (+ (* -0.001871 x9) (+ (* -0.001424 x10) (+ (* -0.003295 x11) (+ (* -0.003725 x12) (+ (* -0.008134 x13) (+ (* -0.006281 x14) (+ (* -0.011651 x15) (+ (* -0.007765 x16) (+ (* -0.012224 x17) (+ (* -0.008494 x18) (+ (* -0.010703 x19) (+ (* -0.009010 x20) (+ (* -0.008138 x21) (+ (* -0.009882 x22) (+ (* -0.004634 x23) (* -0.014052 x24))))))))))))))))))))))))))
        (= x1_next (+ (* 0.007322 x0) (+ (* 0.964141 x1) (+ (* -0.012036 x2) (+ (* 0.001803 x3) (+ (* -0.005652 x4) (+ (* -0.000509 x5) (+ (* -0.004419 x6) (+ (* -0.000912 x7) (+ (* -0.003411 x8) (+ (* 0.000022 x9) (+ (* -0.003059 x10) (+ (* -0.001874 x11) (+ (* -0.004964 x12) (+ (* -0.007053 x13) (+ (* -0.007220 x14) (+ (* -0.010839 x15) (+ (* -0.008461 x16) (+ (* -0.011636 x17) (+ (* -0.008983 x18) (+ (* -0.010310 x19) (+ (* -0.009312 x20) (+ (* -0.007924 x21) (+ (* -0.010009 x22) (+ (* -0.004592 x23) (* -0.014010 x24))))))))))))))))))))))))))
        (= x2_next (+ (* -0.006679 x0) (+ (* 0.006882 x1) (+ (* 0.968534 x2) (+ (* -0.012197 x3) (+ (* 0.001817 x4) (+ (* -0.005703 x5) (+ (* -0.000473 x6) (+ (* -0.004077 x7) (+ (* -0.000795 x8) (+ (* -0.002188 x9) (+ (* -0.001167 x10) (+ (* -0.003509 x11) (+ (* -0.003542 x12) (+ (* -0.008293 x13) (+ (* -0.006140 x14) (+ (* -0.011778 x15) (+ (* -0.007649 x16) (+ (* -0.012332 x17) (+ (* -0.008394 x18) (+ (* -0.010798 x19) (+ (* -0.008919 x20) (+ (* -0.008226 x21) (+ (* -0.009795 x22) (+ (* -0.004719 x23) (* -0.013967 x24))))))))))))))))))))))))))
        (= x3_next (+ (* 0.000790 x0) (+ (* -0.007119 x1) (+ (* 0.007004 x2) (+ (* 0.972892 x3) (+ (* -0.012184 x4) (+ (* 0.001766 x5) (+ (* -0.005667 x6) (+ (* -0.000130 x7) (+ (* -0.003959 x8) (+ (* 0.000428 x9) (+ (* -0.003377 x10) (+ (* -0.001617 x11) (+ (* -0.005178 x12) (+ (* -0.006871 x13) (+ (* -0.007379 x14) (+ (* -0.010698 x15) (+ (* -0.008588 x16) (+ (* -0.011520 x17) (+ (* -0.009090 x18) (+ (* -0.010209 x19) (+ (* -0.009407 x20) (+ (* -0.007833 x21) (+ (* -0.010097 x22) (+ (* -0.004506 x23) (* -0.014095 x24))))))))))))))))))))))))))
        (= x4_next (+ (* -0.004404 x0) (+ (* 0.000350 x1) (+ (* -0.006996 x2) (+ (* 0.006843 x3) (+ (* 0.977388 x4) (+ (* -0.012235 x5) (+ (* 0.001802 x6) (+ (* -0.005324 x7) (+ (* -0.000013 x8) (+ (* -0.002736 x9) (+ (* -0.000760 x10) (+ (* -0.003827 x11) (+ (* -0.003285 x12) (+ (* -0.008506 x13) (+ (* -0.005957 x14) (+ (* -0.011937 x15) (+ (* -0.007508 x16) (+ (* -0.012459 x17) (+ (* -0.008278 x18) (+ (* -0.010905 x19) (+ (* -0.008818 x20) (+ (* -0.008321 x21) (+ (* -0.009704 x22) (+ (* -0.004807 x23) (* -0.013881 x24))))))))))))))))))))))))))
        (= x5_next (+ (* -0.000457 x0) (+ (* -0.004844 x1) (+ (* 0.000473 x2) (+ (* -0.007157 x3) (+ (* 0.006857 x4) (+ (* 0.981505 x5) (+ (* -0.012198 x6) (+ (* 0.002145 x7) (+ (* -0.005207 x8) (+ (* 0.001210 x9) (+ (* -0.003925 x10) (+ (* -0.001210 x11) (+ (* -0.005495 x12) (+ (* -0.006614 x13) (+ (* -0.007593 x14) (+ (* -0.010515 x15) (+ (* -0.008747 x16) (+ (* -0.011379 x17) (+ (* -0.009217 x18) (+ (* -0.010093 x19) (+ (* -0.009514 x20) (+ (* -0.007733 x21) (+ (* -0.010192 x22) (+ (* -0.004415 x23) (* -0.014183 x24))))))))))))))))))))))))))
        (= x6_next (+ (* -0.003622 x0) (+ (* -0.000898 x1) (+ (* -0.004721 x2) (+ (* 0.000312 x3) (+ (* -0.007144 x4) (+ (* 0.006806 x5) (+ (* 0.985190 x6) (+ (* -0.011856 x7) (+ (* 0.002262 x8) (+ (* -0.003984 x9) (+ (* 0.000022 x10) (+ (* -0.004375 x11) (+ (* -0.002879 x12) (+ (* -0.008824 x13) (+ (* -0.005701 x14) (+ (* -0.012151 x15) (+ (* -0.007326 x16) (+ (* -0.012618 x17) (+ (* -0.008137 x18) (+ (* -0.011032 x19) (+ (* -0.008702 x20) (+ (* -0.008429 x21) (+ (* -0.009604 x22) (+ (* -0.004903 x23) (* -0.013790 x24))))))))))))))))))))))))))
        (= x7_next (+ (* -0.001005 x0) (+ (* -0.004062 x1) (+ (* -0.000775 x2) (+ (* -0.004882 x3) (+ (* 0.000325 x4) (+ (* -0.007195 x5) (+ (* 0.006842 x6) (+ (* 0.988562 x7) (+ (* -0.011738 x8) (+ (* 0.003486 x9) (+ (* -0.005172 x10) (+ (* -0.000428 x11) (+ (* -0.006043 x12) (+ (* -0.006208 x13) (+ (* -0.007910 x14) (+ (* -0.010259 x15) (+ (* -0.008961 x16) (+ (* -0.011196 x17) (+ (* -0.009376 x18) (+ (* -0.009952 x19) (+ (* -0.009641 x20) (+ (* -0.007617 x21) (+ (* -0.010300 x22) (+ (* -0.004314 x23) (* -0.014278 x24))))))))))))))))))))))))))
        (= x8_next (+ (* -0.003215 x0) (+ (* -0.001445 x1) (+ (* -0.003939 x2) (+ (* -0.000936 x3) (+ (* -0.004869 x4) (+ (* 0.000274 x5) (+ (* -0.007158 x6) (+ (* 0.007185 x7) (+ (* 0.991086 x8) (+ (* -0.010515 x9) (+ (* 0.002297 x10) (+ (* -0.005622 x11) (+ (* -0.002097 x12) (+ (* -0.009372 x13) (+ (* -0.005294 x14) (+ (* -0.012468 x15) (+ (* -0.007069 x16) (+ (* -0.012832 x17) (+ (* -0.007954 x18) (+ (* -0.011191 x19) (+ (* -0.008561 x20) (+ (* -0.008556 x21) (+ (* -0.009488 x22) (+ (* -0.005010 x23) (* -0.013689 x24))))))))))))))))))))))))))
        (= x9_next (+ (* -0.001323 x0) (+ (* -0.003655 x1) (+ (* -0.001323 x2) (+ (* -0.004100 x3) (+ (* -0.000922 x4) (+ (* -0.004920 x5) (+ (* 0.000311 x6) (+ (* -0.006816 x7) (+ (* 0.007302 x8) (+ (* 0.994155 x9) (+ (* -0.011704 x10) (+ (* 0.001847 x11) (+ (* -0.007291 x12) (+ (* -0.005425 x13) (+ (* -0.008458 x14) (+ (* -0.009852 x15) (+ (* -0.009279 x16) (+ (* -0.010939 x17) (+ (* -0.009590 x18) (+ (* -0.009770 x19) (+ (* -0.009800 x20) (+ (* -0.007476 x21) (+ (* -0.010427 x22) (+ (* -0.004198 x23) (* -0.014385 x24))))))))))))))))))))))))))
        (= x10_next (+ (* -0.002958 x0) (+ (* -0.001763 x1) (+ (* -0.003532 x2) (+ (* -0.001484 x3) (+ (* -0.004087 x4) (+ (* -0.000973 x5) (+ (* -0.004883 x6) (+ (* 0.000654 x7) (+ (* -0.006698 x8) (+ (* 0.008526 x9) (+ (* 0.994343 x10) (+ (* -0.012154 x11) (+ (* 0.000178 x12) (+ (* -0.010619 x13) (+ (* -0.004512 x14) (+ (* -0.013016 x15) (+ (* -0.006662 x16) (+ (* -0.013149 x17) (+ (* -0.007698 x18) (+ (* -0.011405 x19) (+ (* -0.008379 x20) (+ (* -0.008715 x21) (+ (* -0.009347 x22) (+ (* -0.005137 x23) (* -0.013573 x24))))))))))))))))))))))))))
        (= x11_next (+ (* -0.001537 x0) (+ (* -0.003399 x1) (+ (* -0.001640 x2) (+ (* -0.003693 x3) (+ (* -0.001470 x4) (+ (* -0.004138 x5) (+ (* -0.000937 x6) (+ (* -0.004540 x7) (+ (* 0.000771 x8) (+ (* -0.005475 x9) (+ (* 0.007337 x10) (+ (* 0.994901 x11) (+ (* -0.013822 x12) (+ (* -0.003150 x13) (+ (* -0.009706 x14) (+ (* -0.009070 x15) (+ (* -0.009827 x16) (+ (* -0.010533 x17) (+ (* -0.009908 x18) (+ (* -0.009513 x19) (+ (* -0.010014 x20) (+ (* -0.007293 x21) (+ (* -0.010586 x22) (+ (* -0.004057 x23) (* -0.014512 x24))))))))))))))))))))))))))
        (= x12_next (+ (* -0.002776 x0) (+ (* -0.001977 x1) (+ (* -0.003276 x2) (+ (* -0.001801 x3) (+ (* -0.003680 x4) (+ (* -0.001521 x5) (+ (* -0.004101 x6) (+ (* -0.000594 x7) (+ (* -0.004423 x8) (+ (* 0.001994 x9) (+ (* -0.006664 x10) (+ (* 0.006887 x11) (+ (* 0.993958 x12) (+ (* -0.017151 x13) (+ (* -0.002237 x14) (+ (* -0.014264 x15) (+ (* -0.005880 x16) (+ (* -0.013697 x17) (+ (* -0.007291 x18) (+ (* -0.011723 x19) (+ (* -0.008122 x20) (+ (* -0.008929 x21) (+ (* -0.009164 x22) (+ (* -0.005296 x23) (* -0.013432 x24))))))))))))))))))))))))))
        (= x13_next (+ (* -0.001696 x0) (+ (* -0.003216 x1) (+ (* -0.001854 x2) (+ (* -0.003437 x3) (+ (* -0.001788 x4) (+ (* -0.003731 x5) (+ (* -0.001485 x6) (+ (* -0.003758 x7) (+ (* -0.000477 x8) (+ (* -0.003200 x9) (+ (* 0.000805 x10) (+ (* -0.007114 x11) (+ (* 0.005218 x12) (+ (* 0.991146 x13) (+ (* -0.016237 x14) (+ (* -0.006795 x15) (+ (* -0.011074 x16) (+ (* -0.009751 x17) (+ (* -0.010455 x18) (+ (* -0.009106 x19) (+ (* -0.010332 x20) (+ (* -0.007036 x21) (+ (* -0.010800 x22) (+ (* -0.003874 x23) (* -0.014671 x24))))))))))))))))))))))))))
        (= x14_next (+ (* -0.002635 x0) (+ (* -0.002136 x1) (+ (* -0.003093 x2) (+ (* -0.002015 x3) (+ (* -0.003423 x4) (+ (* -0.001839 x5) (+ (* -0.003694 x6) (+ (* -0.001142 x7) (+ (* -0.003641 x8) (+ (* 0.000747 x9) (+ (* -0.004389 x10) (+ (* 0.000355 x11) (+ (* -0.008782 x12) (+ (* 0.001890 x13) (+ (* 0.992425 x14) (+ (* -0.020795 x15) (+ (* -0.003605 x16) (+ (* -0.014945 x17) (+ (* -0.006509 x18) (+ (* -0.012271 x19) (+ (* -0.007715 x20) (+ (* -0.009246 x21) (+ (* -0.008907 x22) (+ (* -0.005510 x23) (* -0.013250 x24))))))))))))))))))))))))))
        (= x15_next (+ (* -0.001823 x0) (+ (* -0.003075 x1) (+ (* -0.002013 x2) (+ (* -0.003254 x3) (+ (* -0.002002 x4) (+ (* -0.003474 x5) (+ (* -0.001802 x6) (+ (* -0.003352 x7) (+ (* -0.001025 x8) (+ (* -0.002418 x9) (+ (* -0.000442 x10) (+ (* -0.004839 x11) (+ (* -0.001313 x12) (+ (* -0.012111 x13) (+ (* 0.002803 x14) (+ (* 0.988123 x15) (+ (* -0.017606 x16) (+ (* -0.007476 x17) (+ (* -0.011703 x18) (+ (* -0.008324 x19) (+ (* -0.010880 x20) (+ (* -0.006630 x21) (+ (* -0.011117 x22) (+ (* -0.003618 x23) (* -0.014885 x24))))))))))))))))))))))))))
        (= x16_next (+ (* -0.002519 x0) (+ (* -0.002263 x1) (+ (* -0.002952 x2) (+ (* -0.002174 x3) (+ (* -0.003241 x4) (+ (* -0.002052 x5) (+ (* -0.003438 x6) (+ (* -0.001459 x7) (+ (* -0.003235 x8) (+ (* 0.000199 x9) (+ (* -0.003607 x10) (+ (* -0.000892 x11) (+ (* -0.006507 x12) (+ (* -0.004642 x13) (+ (* -0.011197 x14) (+ (* -0.001755 x15) (+ (* 0.991491 x16) (+ (* -0.021476 x17) (+ (* -0.004234 x18) (+ (* -0.013518 x19) (+ (* -0.006933 x20) (+ (* -0.009794 x21) (+ (* -0.008501 x22) (+ (* -0.005828 x23) (* -0.012993 x24))))))))))))))))))))))))))
        (= x17_next (+ (* -0.001930 x0) (+ (* -0.002959 x1) (+ (* -0.002140 x2) (+ (* -0.003113 x3) (+ (* -0.002161 x4) (+ (* -0.003292 x5) (+ (* -0.002016 x6) (+ (* -0.003095 x7) (+ (* -0.001342 x8) (+ (* -0.002011 x9) (+ (* -0.000990 x10) (+ (* -0.004057 x11) (+ (* -0.002561 x12) (+ (* -0.009836 x13) (+ (* -0.003728 x14) (+ (* -0.015755 x15) (+ (* 0.001435 x16) (+ (* 0.987744 x17) (+ (* -0.018235 x18) (+ (* -0.006049 x19) (+ (* -0.012127 x20) (+ (* -0.005848 x21) (+ (* -0.011665 x22) (+ (* -0.003211 x23) (* -0.015203 x24))))))))))))))))))))))))))
        (= x18_next (+ (* -0.002418 x0) (+ (* -0.002370 x1) (+ (* -0.002836 x2) (+ (* -0.002301 x3) (+ (* -0.003100 x4) (+ (* -0.002211 x5) (+ (* -0.003255 x6) (+ (* -0.001673 x7) (+ (* -0.002978 x8) (+ (* -0.000119 x9) (+ (* -0.003200 x10) (+ (* -0.001440 x11) (+ (* -0.005725 x12) (+ (* -0.005889 x13) (+ (* -0.008922 x14) (+ (* -0.008286 x15) (+ (* -0.012566 x16) (+ (* -0.002436 x17) (+ (* 0.991069 x18) (+ (* -0.020050 x19) (+ (* -0.004658 x20) (+ (* -0.011042 x21) (+ (* -0.007719 x22) (+ (* -0.006376 x23) (* -0.012586 x24))))))))))))))))))))))))))
        (= x19_next (+ (* -0.002025 x0) (+ (* -0.002859 x1) (+ (* -0.002247 x2) (+ (* -0.002997 x3) (+ (* -0.002288 x4) (+ (* -0.003151 x5) (+ (* -0.002175 x6) (+ (* -0.002913 x7) (+ (* -0.001556 x8) (+ (* -0.001755 x9) (+ (* -0.001308 x10) (+ (* -0.003650 x11) (+ (* -0.003109 x12) (+ (* -0.009054 x13) (+ (* -0.004976 x14) (+ (* -0.013480 x15) (+ (* -0.005097 x16) (+ (* -0.016436 x17) (+ (* 0.000806 x18) (+ (* 0.989309 x19) (+ (* -0.018659 x20) (+ (* -0.003573 x21) (+ (* -0.012913 x22) (+ (* -0.002429 x23) (* -0.015751 x24))))))))))))))))))))))))))
        (= x20_next (+ (* -0.002327 x0) (+ (* -0.002466 x1) (+ (* -0.002736 x2) (+ (* -0.002408 x3) (+ (* -0.002984 x4) (+ (* -0.002338 x5) (+ (* -0.003114 x6) (+ (* -0.001832 x7) (+ (* -0.002795 x8) (+ (* -0.000333 x9) (+ (* -0.002943 x10) (+ (* -0.001758 x11) (+ (* -0.005319 x12) (+ (* -0.006437 x13) (+ (* -0.008140 x14) (+ (* -0.009534 x15) (+ (* -0.010291 x16) (+ (* -0.008967 x17) (+ (* -0.013194 x18) (+ (* -0.001009 x19) (+ (* 0.990733 x20) (+ (* -0.017573 x21) (+ (* -0.005444 x22) (+ (* -0.007623 x23) (* -0.011804 x24))))))))))))))))))))))))))
        (= x21_next (+ (* -0.002114 x0) (+ (* -0.002767 x1) (+ (* -0.002343 x2) (+ (* -0.002897 x3) (+ (* -0.002395 x4) (+ (* -0.003035 x5) (+ (* -0.002302 x6) (+ (* -0.002772 x7) (+ (* -0.001715 x8) (+ (* -0.001572 x9) (+ (* -0.001522 x10) (+ (* -0.003393 x11) (+ (* -0.003426 x12) (+ (* -0.008647 x13) (+ (* -0.005524 x14) (+ (* -0.012698 x15) (+ (* -0.006344 x16) (+ (* -0.014161 x17) (+ (* -0.005725 x18) (+ (* -0.015010 x19) (+ (* 0.000382 x20) (+ (* 0.991834 x21) (+ (* -0.019444 x22) (+ (* -0.000154 x23) (* -0.016998 x24))))))))))))))))))))))))))
        (= x22_next (+ (* -0.002241 x0) (+ (* -0.002554 x1) (+ (* -0.002644 x2) (+ (* -0.002504 x3) (+ (* -0.002883 x4) (+ (* -0.002446 x5) (+ (* -0.002998 x6) (+ (* -0.001959 x7) (+ (* -0.002654 x8) (+ (* -0.000492 x9) (+ (* -0.002761 x10) (+ (* -0.001972 x11) (+ (* -0.005062 x12) (+ (* -0.006755 x13) (+ (* -0.007734 x14) (+ (* -0.010082 x15) (+ (* -0.009509 x16) (+ (* -0.010215 x17) (+ (* -0.010919 x18) (+ (* -0.007541 x19) (+ (* -0.013619 x20) (+ (* 0.001468 x21) (+ (* 0.989964 x22) (+ (* -0.014155 x23) (* -0.009529 x24))))))))))))))))))))))))))
        (= x23_next (+ (* -0.002198 x0) (+ (* -0.002681 x1) (+ (* -0.002431 x2) (+ (* -0.002805 x3) (+ (* -0.002490 x4) (+ (* -0.002934 x5) (+ (* -0.002409 x6) (+ (* -0.002656 x7) (+ (* -0.001842 x8) (+ (* -0.001431 x9) (+ (* -0.001681 x10) (+ (* -0.003211 x11) (+ (* -0.003640 x12) (+ (* -0.008390 x13) (+ (* -0.005841 x14) (+ (* -0.012292 x15) (+ (* -0.006892 x16) (+ (* -0.013379 x17) (+ (* -0.006973 x18) (+ (* -0.012735 x19) (+ (* -0.006150 x20) (+ (* -0.012533 x21) (+ (* -0.000404 x22) (+ (* 0.995240 x23) (* -0.023530 x24))))))))))))))))))))))))))
        (= x24_next (+ (* -0.002156 x0) (+ (* -0.002639 x1) (+ (* -0.002558 x2) (+ (* -0.002592 x3) (+ (* -0.002792 x4) (+ (* -0.002541 x5) (+ (* -0.002898 x6) (+ (* -0.002067 x7) (+ (* -0.002538 x8) (+ (* -0.000619 x9) (+ (* -0.002620 x10) (+ (* -0.002131 x11) (+ (* -0.004879 x12) (+ (* -0.006969 x13) (+ (* -0.007477 x14) (+ (* -0.010399 x15) (+ (* -0.009102 x16) (+ (* -0.010763 x17) (+ (* -0.010137 x18) (+ (* -0.008788 x19) (+ (* -0.011344 x20) (+ (* -0.005064 x21) (+ (* -0.014404 x22) (+ (* 0.004886 x23) (* 0.985834 x24))))))))))))))))))))))))))
      )
      (Inv x0_next x1_next x2_next x3_next x4_next x5_next x6_next x7_next x8_next x9_next x10_next x11_next x12_next x13_next x14_next x15_next x16_next x17_next x18_next x19_next x20_next x21_next x22_next x23_next x24_next)
    )
  )
)

;; 3. Safety Query (Actuator Saturation > 12.0V or < -12.0V)
(assert
  (forall ((x0 Real) (x1 Real) (x2 Real) (x3 Real) (x4 Real) (x5 Real) (x6 Real) (x7 Real) (x8 Real) (x9 Real) (x10 Real) (x11 Real) (x12 Real) (x13 Real) (x14 Real) (x15 Real) (x16 Real) (x17 Real) (x18 Real) (x19 Real) (x20 Real) (x21 Real) (x22 Real) (x23 Real) (x24 Real))
    (=>
      (and
        (Inv x0 x1 x2 x3 x4 x5 x6 x7 x8 x9 x10 x11 x12 x13 x14 x15 x16 x17 x18 x19 x20 x21 x22 x23 x24)
        (or
          (> (+ (* -0.219847 x0) (+ (* -0.263884 x1) (+ (* -0.251592 x2) (+ (* -0.267694 x3) (+ (* -0.266344 x4) (+ (* -0.271437 x5) (+ (* -0.267791 x6) (+ (* -0.233525 x7) (+ (* -0.221807 x8) (+ (* -0.099476 x9) (+ (* -0.218352 x10) (+ (* -0.263351 x11) (+ (* -0.430200 x12) (+ (* -0.763066 x13) (+ (* -0.671708 x14) (+ (* -1.127509 x15) (+ (* -0.808561 x16) (+ (* -1.195600 x17) (+ (* -0.871413 x18) (+ (* -1.052936 x19) (+ (* -0.913854 x20) (+ (* -0.805286 x21) (+ (* -0.992394 x22) (+ (* -0.463430 x23) (* -1.400961 x24))))))))))))))))))))))))) 12.0)
          (< (+ (* -0.219847 x0) (+ (* -0.263884 x1) (+ (* -0.251592 x2) (+ (* -0.267694 x3) (+ (* -0.266344 x4) (+ (* -0.271437 x5) (+ (* -0.267791 x6) (+ (* -0.233525 x7) (+ (* -0.221807 x8) (+ (* -0.099476 x9) (+ (* -0.218352 x10) (+ (* -0.263351 x11) (+ (* -0.430200 x12) (+ (* -0.763066 x13) (+ (* -0.671708 x14) (+ (* -1.127509 x15) (+ (* -0.808561 x16) (+ (* -1.195600 x17) (+ (* -0.871413 x18) (+ (* -1.052936 x19) (+ (* -0.913854 x20) (+ (* -0.805286 x21) (+ (* -0.992394 x22) (+ (* -0.463430 x23) (* -1.400961 x24))))))))))))))))))))))))) -12.0)
        )
      )
      false
    )
  )
)

(check-sat)
(get-model)
